\ENCODING=ISO-8859-1
\Problem name: 

Maximize
 obj1: 10000 x_1_7
Subject To
 c0: x_1_2 + x_1_3 + x_1_4  = 0
 c1: - x_1_2 + x_2_3 + x_2_5  = 0
 c2: - x_1_3 - x_2_3 + x_3_5 + x_3_6 - x_4_3  = 0
 c3: - x_1_4 + x_4_3 + x_4_5 + x_4_6  = 0
 c4: - x_2_5 - x_3_5 - x_4_5 + x_5_7  = 0
 c5: - x_3_6 - x_4_6 + x_6_7  = 0
 c6: - x_5_7 - x_6_7  = 0
Bounds
 0 <= x_1_2 <= 10
 0 <= x_1_3 <= 8
 0 <= x_1_4 <= 3
 0 <= x_2_3 <= 4
 0 <= x_2_5 <= 4
 0 <= x_3_5 <= 8
 0 <= x_3_6 <= 2
 0 <= x_4_3 <= 3
 0 <= x_4_5 <= 7
 0 <= x_4_6 <= 9
 0 <= x_5_7 <= 10
 0 <= x_6_7 <= 10
      x_1_7 >= 0
Generals
 x_1_2  x_1_3  x_1_4  x_2_3  x_2_5  x_3_5  x_3_6  x_4_3  x_4_5  x_4_6  x_5_7 
 x_6_7  x_1_7 
End
